ch150
7305
103
98
1
87
76
73
48
3
62
149
125
22
104
4
45
115
150
21
88
94
121
79
59
16
111
105
52
126
33
56
83
90
92
54
46
138
134
131
32
38
23
77
122
133
15
78
80
14
72
147
49
144
145
136
112
64
44
71
128
68
119
91
106
13
74
123
31
27
129
117
140
60
66
17
130
148
11
61
36
69
40
42
9
28
6
37
2
19
99
114
102
137
50
55
58
86
135
70
108
29
81
110
47
120
139
53
12
24
118
127
39
57
41
101
116
67
43
109
51
20
25
141
65
132
85
142
18
75
26
146
143
100
5
97
124
93
35
10
113
63
34
30
96
89
8
84
7
107
95
82